src/INTERFACES/UART/TRANSMITTER/formal/tx_formal_prove/model/design_smt2.smt2
; SMT-LIBv2 description generated by Yosys 0.9+2406 (git sha1 000fd08198, g++ 9.3.0 -fPIC -Os)
; yosys-smt2-module uart_transmitter
(declare-sort |uart_transmitter_s| 0)
(declare-fun |uart_transmitter_is| (|uart_transmitter_s|) Bool)
; yosys-smt2-register r_PAST_VALID 1
; yosys-smt2-wire r_PAST_VALID 1
(declare-fun |uart_transmitter#0| (|uart_transmitter_s|) (_ BitVec 1)) ; \r_PAST_VALID
(define-fun |uart_transmitter_n r_PAST_VALID| ((state |uart_transmitter_s|)) Bool (= ((_ extract 0 0) (|uart_transmitter#0| state)) #b1))
; yosys-smt2-wire r_NEXT_STATE 2
; yosys-smt2-anyseq uart_transmitter#1 2 $auto$setundef.cc:501:execute$285
(declare-fun |uart_transmitter#1| (|uart_transmitter_s|) (_ BitVec 2)) ; $auto$rtlil.cc:2807:Anyseq$286
(declare-fun |uart_transmitter#2| (|uart_transmitter_s|) (_ BitVec 3)) ; \r_BIT_COUNT
(define-fun |uart_transmitter#3| ((state |uart_transmitter_s|)) Bool (= (|uart_transmitter#2| state) #b111)) ; $eq$./uart_transmitter.v:41$22_Y
(define-fun |uart_transmitter#4| ((state |uart_transmitter_s|)) (_ BitVec 1) (ite (|uart_transmitter#3| state) #b1 #b0)) ; $3\r_NEXT_STATE[1:0]
(declare-fun |uart_transmitter#5| (|uart_transmitter_s|) (_ BitVec 1)) ; \i_TX_ENABLE
(define-fun |uart_transmitter#6| ((state |uart_transmitter_s|)) (_ BitVec 1) (ite (= ((_ extract 0 0) (|uart_transmitter#5| state)) #b1) #b1 #b0)) ; $2\r_NEXT_STATE[1:0]
(declare-fun |uart_transmitter#7| (|uart_transmitter_s|) (_ BitVec 2)) ; \r_CURRENT_STATE
(define-fun |uart_transmitter#8| ((state |uart_transmitter_s|)) Bool (= (|uart_transmitter#7| state) #b11)) ; $procmux$171_CMP
(define-fun |uart_transmitter#9| ((state |uart_transmitter_s|)) Bool (= (|uart_transmitter#7| state) #b10)) ; $eq$./uart_transmitter.v:64$26_Y
(define-fun |uart_transmitter#10| ((state |uart_transmitter_s|)) Bool (= (|uart_transmitter#7| state) #b01)) ; $procmux$173_CMP
(define-fun |uart_transmitter#11| ((state |uart_transmitter_s|)) Bool (not (or  (= ((_ extract 0 0) (|uart_transmitter#7| state)) #b1) (= ((_ extract 1 1) (|uart_transmitter#7| state)) #b1)))) ; $eq$./uart_transmitter.v:126$76_Y
(define-fun |uart_transmitter#12| ((state |uart_transmitter_s|)) (_ BitVec 2) (ite (|uart_transmitter#11| state) (concat #b0 (|uart_transmitter#6| state)) (ite (|uart_transmitter#10| state) #b10 (ite (|uart_transmitter#9| state) (concat #b1 (|uart_transmitter#4| state)) (ite (|uart_transmitter#8| state) #b00 (|uart_transmitter#1| state)))))) ; \r_NEXT_STATE
(define-fun |uart_transmitter_n r_NEXT_STATE| ((state |uart_transmitter_s|)) (_ BitVec 2) (|uart_transmitter#12| state))
; yosys-smt2-register r_DATA_REG 8
; yosys-smt2-wire r_DATA_REG 8
(declare-fun |uart_transmitter#13| (|uart_transmitter_s|) (_ BitVec 8)) ; \r_DATA_REG
(define-fun |uart_transmitter_n r_DATA_REG| ((state |uart_transmitter_s|)) (_ BitVec 8) (|uart_transmitter#13| state))
; yosys-smt2-register r_CURRENT_STATE 2
; yosys-smt2-wire r_CURRENT_STATE 2
(define-fun |uart_transmitter_n r_CURRENT_STATE| ((state |uart_transmitter_s|)) (_ BitVec 2) (|uart_transmitter#7| state))
; yosys-smt2-register r_BIT_COUNT 3
; yosys-smt2-wire r_BIT_COUNT 3
(define-fun |uart_transmitter_n r_BIT_COUNT| ((state |uart_transmitter_s|)) (_ BitVec 3) (|uart_transmitter#2| state))
; yosys-smt2-output o_TX_BUSY 1
; yosys-smt2-register o_TX_BUSY 1
; yosys-smt2-wire o_TX_BUSY 1
(declare-fun |uart_transmitter#14| (|uart_transmitter_s|) (_ BitVec 1)) ; \o_TX_BUSY
(define-fun |uart_transmitter_n o_TX_BUSY| ((state |uart_transmitter_s|)) Bool (= ((_ extract 0 0) (|uart_transmitter#14| state)) #b1))
; yosys-smt2-output o_TX 1
; yosys-smt2-register o_TX 1
; yosys-smt2-wire o_TX 1
(declare-fun |uart_transmitter#15| (|uart_transmitter_s|) (_ BitVec 1)) ; \o_TX
(define-fun |uart_transmitter_n o_TX| ((state |uart_transmitter_s|)) Bool (= ((_ extract 0 0) (|uart_transmitter#15| state)) #b1))
; yosys-smt2-input i_TX_ENABLE 1
; yosys-smt2-wire i_TX_ENABLE 1
(define-fun |uart_transmitter_n i_TX_ENABLE| ((state |uart_transmitter_s|)) Bool (= ((_ extract 0 0) (|uart_transmitter#5| state)) #b1))
; yosys-smt2-input i_RESET 1
; yosys-smt2-wire i_RESET 1
(declare-fun |uart_transmitter#16| (|uart_transmitter_s|) Bool) ; \i_RESET
(define-fun |uart_transmitter_n i_RESET| ((state |uart_transmitter_s|)) Bool (|uart_transmitter#16| state))
; yosys-smt2-input i_DATA_IN 8
; yosys-smt2-wire i_DATA_IN 8
(declare-fun |uart_transmitter#17| (|uart_transmitter_s|) (_ BitVec 8)) ; \i_DATA_IN
(define-fun |uart_transmitter_n i_DATA_IN| ((state |uart_transmitter_s|)) (_ BitVec 8) (|uart_transmitter#17| state))
; yosys-smt2-input i_CLK 1
; yosys-smt2-wire i_CLK 1
(declare-fun |uart_transmitter#18| (|uart_transmitter_s|) Bool) ; \i_CLK
(define-fun |uart_transmitter_n i_CLK| ((state |uart_transmitter_s|)) Bool (|uart_transmitter#18| state))
; yosys-smt2-register $past$./uart_transmitter.v:124$8$0 1
(declare-fun |uart_transmitter#19| (|uart_transmitter_s|) (_ BitVec 1)) ; $past$./uart_transmitter.v:124$8$0
(define-fun |uart_transmitter_n $past$./uart_transmitter.v:124$8$0| ((state |uart_transmitter_s|)) Bool (= ((_ extract 0 0) (|uart_transmitter#19| state)) #b1))
; yosys-smt2-register $past$./uart_transmitter.v:123$7$0 3
(declare-fun |uart_transmitter#20| (|uart_transmitter_s|) (_ BitVec 3)) ; $past$./uart_transmitter.v:123$7$0
(define-fun |uart_transmitter_n $past$./uart_transmitter.v:123$7$0| ((state |uart_transmitter_s|)) (_ BitVec 3) (|uart_transmitter#20| state))
; yosys-smt2-register $past$./uart_transmitter.v:113$4$0 8
(declare-fun |uart_transmitter#21| (|uart_transmitter_s|) (_ BitVec 8)) ; $past$./uart_transmitter.v:113$4$0
(define-fun |uart_transmitter_n $past$./uart_transmitter.v:113$4$0| ((state |uart_transmitter_s|)) (_ BitVec 8) (|uart_transmitter#21| state))
; yosys-smt2-register $past$./uart_transmitter.v:110$3$0 2
(declare-fun |uart_transmitter#22| (|uart_transmitter_s|) (_ BitVec 2)) ; $past$./uart_transmitter.v:110$3$0
(define-fun |uart_transmitter_n $past$./uart_transmitter.v:110$3$0| ((state |uart_transmitter_s|)) (_ BitVec 2) (|uart_transmitter#22| state))
; yosys-smt2-register $formal$./uart_transmitter.v:123$18_CHECK 1
(declare-fun |uart_transmitter#23| (|uart_transmitter_s|) (_ BitVec 1)) ; $formal$./uart_transmitter.v:123$18_CHECK
(define-fun |uart_transmitter_n $formal$./uart_transmitter.v:123$18_CHECK| ((state |uart_transmitter_s|)) Bool (= ((_ extract 0 0) (|uart_transmitter#23| state)) #b1))
; yosys-smt2-register $formal$./uart_transmitter.v:122$17_EN 1
(declare-fun |uart_transmitter#24| (|uart_transmitter_s|) (_ BitVec 1)) ; $formal$./uart_transmitter.v:122$17_EN
(define-fun |uart_transmitter_n $formal$./uart_transmitter.v:122$17_EN| ((state |uart_transmitter_s|)) Bool (= ((_ extract 0 0) (|uart_transmitter#24| state)) #b1))
; yosys-smt2-register $formal$./uart_transmitter.v:122$17_CHECK 1
(declare-fun |uart_transmitter#25| (|uart_transmitter_s|) (_ BitVec 1)) ; $formal$./uart_transmitter.v:122$17_CHECK
(define-fun |uart_transmitter_n $formal$./uart_transmitter.v:122$17_CHECK| ((state |uart_transmitter_s|)) Bool (= ((_ extract 0 0) (|uart_transmitter#25| state)) #b1))
; yosys-smt2-register $formal$./uart_transmitter.v:119$16_EN 1
(declare-fun |uart_transmitter#26| (|uart_transmitter_s|) (_ BitVec 1)) ; $formal$./uart_transmitter.v:119$16_EN
(define-fun |uart_transmitter_n $formal$./uart_transmitter.v:119$16_EN| ((state |uart_transmitter_s|)) Bool (= ((_ extract 0 0) (|uart_transmitter#26| state)) #b1))
; yosys-smt2-register $formal$./uart_transmitter.v:119$16_CHECK 1
(declare-fun |uart_transmitter#27| (|uart_transmitter_s|) (_ BitVec 1)) ; $formal$./uart_transmitter.v:119$16_CHECK
(define-fun |uart_transmitter_n $formal$./uart_transmitter.v:119$16_CHECK| ((state |uart_transmitter_s|)) Bool (= ((_ extract 0 0) (|uart_transmitter#27| state)) #b1))
; yosys-smt2-register $formal$./uart_transmitter.v:116$15_EN 1
(declare-fun |uart_transmitter#28| (|uart_transmitter_s|) (_ BitVec 1)) ; $formal$./uart_transmitter.v:116$15_EN
(define-fun |uart_transmitter_n $formal$./uart_transmitter.v:116$15_EN| ((state |uart_transmitter_s|)) Bool (= ((_ extract 0 0) (|uart_transmitter#28| state)) #b1))
; yosys-smt2-register $formal$./uart_transmitter.v:116$15_CHECK 1
(declare-fun |uart_transmitter#29| (|uart_transmitter_s|) (_ BitVec 1)) ; $formal$./uart_transmitter.v:116$15_CHECK
(define-fun |uart_transmitter_n $formal$./uart_transmitter.v:116$15_CHECK| ((state |uart_transmitter_s|)) Bool (= ((_ extract 0 0) (|uart_transmitter#29| state)) #b1))
; yosys-smt2-register $formal$./uart_transmitter.v:112$14_CHECK 1
(declare-fun |uart_transmitter#30| (|uart_transmitter_s|) (_ BitVec 1)) ; $formal$./uart_transmitter.v:112$14_CHECK
(define-fun |uart_transmitter_n $formal$./uart_transmitter.v:112$14_CHECK| ((state |uart_transmitter_s|)) Bool (= ((_ extract 0 0) (|uart_transmitter#30| state)) #b1))
; yosys-smt2-register $formal$./uart_transmitter.v:111$13_EN 1
(declare-fun |uart_transmitter#31| (|uart_transmitter_s|) (_ BitVec 1)) ; $formal$./uart_transmitter.v:111$13_EN
(define-fun |uart_transmitter_n $formal$./uart_transmitter.v:111$13_EN| ((state |uart_transmitter_s|)) Bool (= ((_ extract 0 0) (|uart_transmitter#31| state)) #b1))
; yosys-smt2-register $formal$./uart_transmitter.v:111$13_CHECK 1
(declare-fun |uart_transmitter#32| (|uart_transmitter_s|) (_ BitVec 1)) ; $formal$./uart_transmitter.v:111$13_CHECK
(define-fun |uart_transmitter_n $formal$./uart_transmitter.v:111$13_CHECK| ((state |uart_transmitter_s|)) Bool (= ((_ extract 0 0) (|uart_transmitter#32| state)) #b1))
; yosys-smt2-register $and$./uart_transmitter.v:0$63_Y 1
(declare-fun |uart_transmitter#33| (|uart_transmitter_s|) (_ BitVec 1)) ; $and$./uart_transmitter.v:0$63_Y
(define-fun |uart_transmitter_n $and$./uart_transmitter.v:0$63_Y| ((state |uart_transmitter_s|)) Bool (= ((_ extract 0 0) (|uart_transmitter#33| state)) #b1))
(define-fun |uart_transmitter#34| ((state |uart_transmitter_s|)) Bool (= (|uart_transmitter#17| state) #b10001010)) ; $0$formal$./uart_transmitter.v:105$12_CHECK[0:0]$44
; yosys-smt2-assume 0 ./uart_transmitter.v:105.20-106.29
(define-fun |uart_transmitter_u 0| ((state |uart_transmitter_s|)) Bool (or (|uart_transmitter#34| state) (not true))) ; $assume$./uart_transmitter.v:105$82
(define-fun |uart_transmitter#35| ((state |uart_transmitter_s|)) Bool (not (or  (|uart_transmitter#16| state) false))) ; $0$formal$./uart_transmitter.v:104$11_CHECK[0:0]$42
; yosys-smt2-assume 1 ./uart_transmitter.v:104.27-105.19
(define-fun |uart_transmitter_u 1| ((state |uart_transmitter_s|)) Bool (or (|uart_transmitter#35| state) (not true))) ; $assume$./uart_transmitter.v:104$81
(define-fun |uart_transmitter#36| ((state |uart_transmitter_s|)) Bool (distinct (|uart_transmitter#33| state) (ite (|uart_transmitter#18| state) #b1 #b0))) ; $0$formal$./uart_transmitter.v:103$10_CHECK[0:0]$40
; yosys-smt2-assume 2 ./uart_transmitter.v:103.7-104.26
(define-fun |uart_transmitter_u 2| ((state |uart_transmitter_s|)) Bool (or (|uart_transmitter#36| state) (not true))) ; $assume$./uart_transmitter.v:103$80
; yosys-smt2-assert 0 ./uart_transmitter.v:123.35-124.51
(define-fun |uart_transmitter_a 0| ((state |uart_transmitter_s|)) Bool (or (= ((_ extract 0 0) (|uart_transmitter#23| state)) #b1) (not (= ((_ extract 0 0) (|uart_transmitter#24| state)) #b1)))) ; $assert$./uart_transmitter.v:123$88
; yosys-smt2-assert 1 ./uart_transmitter.v:122.9-123.34
(define-fun |uart_transmitter_a 1| ((state |uart_transmitter_s|)) Bool (or (= ((_ extract 0 0) (|uart_transmitter#25| state)) #b1) (not (= ((_ extract 0 0) (|uart_transmitter#24| state)) #b1)))) ; $assert$./uart_transmitter.v:122$87
; yosys-smt2-assert 2 ./uart_transmitter.v:119.44-120.18
(define-fun |uart_transmitter_a 2| ((state |uart_transmitter_s|)) Bool (or (= ((_ extract 0 0) (|uart_transmitter#27| state)) #b1) (not (= ((_ extract 0 0) (|uart_transmitter#26| state)) #b1)))) ; $assert$./uart_transmitter.v:119$86
; yosys-smt2-assert 3 ./uart_transmitter.v:116.9-117.22
(define-fun |uart_transmitter_a 3| ((state |uart_transmitter_s|)) Bool (or (= ((_ extract 0 0) (|uart_transmitter#29| state)) #b1) (not (= ((_ extract 0 0) (|uart_transmitter#28| state)) #b1)))) ; $assert$./uart_transmitter.v:116$85
; yosys-smt2-assert 4 ./uart_transmitter.v:112.24-113.43
(define-fun |uart_transmitter_a 4| ((state |uart_transmitter_s|)) Bool (or (= ((_ extract 0 0) (|uart_transmitter#30| state)) #b1) (not (= ((_ extract 0 0) (|uart_transmitter#31| state)) #b1)))) ; $assert$./uart_transmitter.v:112$84
; yosys-smt2-assert 5 ./uart_transmitter.v:111.9-112.23
(define-fun |uart_transmitter_a 5| ((state |uart_transmitter_s|)) Bool (or (= ((_ extract 0 0) (|uart_transmitter#32| state)) #b1) (not (= ((_ extract 0 0) (|uart_transmitter#31| state)) #b1)))) ; $assert$./uart_transmitter.v:111$83
; yosys-smt2-anyseq uart_transmitter#37 1 $auto$setundef.cc:501:execute$257
(declare-fun |uart_transmitter#37| (|uart_transmitter_s|) (_ BitVec 1)) ; $auto$rtlil.cc:2807:Anyseq$258
; yosys-smt2-anyseq uart_transmitter#38 1 $auto$setundef.cc:501:execute$255
(declare-fun |uart_transmitter#38| (|uart_transmitter_s|) (_ BitVec 1)) ; $auto$rtlil.cc:2807:Anyseq$256
(define-fun |uart_transmitter#39| ((state |uart_transmitter_s|)) Bool (not (or  (= ((_ extract 0 0) (|uart_transmitter#14| state)) #b1) false))) ; $logic_not$./uart_transmitter.v:112$69_Y
(define-fun |uart_transmitter#40| ((state |uart_transmitter_s|)) Bool (not (or  (= ((_ extract 0 0) (|uart_transmitter#22| state)) #b1) (= ((_ extract 1 1) (|uart_transmitter#22| state)) #b1)))) ; $eq$./uart_transmitter.v:110$68_Y
(define-fun |uart_transmitter#41| ((state |uart_transmitter_s|)) (_ BitVec 1) (ite (|uart_transmitter#40| state) (ite (|uart_transmitter#39| state) #b1 #b0) (|uart_transmitter#38| state))) ; $procmux$118_Y
(define-fun |uart_transmitter#42| ((state |uart_transmitter_s|)) Bool (not (or  (= ((_ extract 0 0) (|uart_transmitter#33| state)) #b1) false false false false false false false false false false false false false false false false false false false false false false false false false false false false false false false))) ; $logic_not$./uart_transmitter.v:0$64_Y
(define-fun |uart_transmitter#43| ((state |uart_transmitter_s|)) Bool (and (or  (|uart_transmitter#42| state) false) (or  (|uart_transmitter#18| state) false false false false false false false false false false false false false false false false false false false false false false false false false false false false false false false))) ; $logic_and$./uart_transmitter.v:108$66_Y
(define-fun |uart_transmitter#44| ((state |uart_transmitter_s|)) Bool (and (or  (|uart_transmitter#43| state) false) (or  (= ((_ extract 0 0) (|uart_transmitter#0| state)) #b1) false))) ; $logic_and$./uart_transmitter.v:108$67_Y
(define-fun |uart_transmitter#45| ((state |uart_transmitter_s|)) (_ BitVec 1) (ite (|uart_transmitter#44| state) (|uart_transmitter#41| state) (|uart_transmitter#37| state))) ; $0$formal$./uart_transmitter.v:111$13_CHECK[0:0]$46
(define-fun |uart_transmitter#46| ((state |uart_transmitter_s|)) (_ BitVec 1) (ite (|uart_transmitter#40| state) #b1 #b0)) ; $procmux$113_Y
(define-fun |uart_transmitter#47| ((state |uart_transmitter_s|)) (_ BitVec 1) (ite (|uart_transmitter#44| state) (|uart_transmitter#46| state) #b0)) ; $0$formal$./uart_transmitter.v:111$13_EN[0:0]$47
; yosys-smt2-anyseq uart_transmitter#48 1 $auto$setundef.cc:501:execute$261
(declare-fun |uart_transmitter#48| (|uart_transmitter_s|) (_ BitVec 1)) ; $auto$rtlil.cc:2807:Anyseq$262
; yosys-smt2-anyseq uart_transmitter#49 1 $auto$setundef.cc:501:execute$259
(declare-fun |uart_transmitter#49| (|uart_transmitter_s|) (_ BitVec 1)) ; $auto$rtlil.cc:2807:Anyseq$260
(define-fun |uart_transmitter#50| ((state |uart_transmitter_s|)) Bool (= (|uart_transmitter#13| state) (|uart_transmitter#21| state))) ; $eq$./uart_transmitter.v:113$70_Y
(define-fun |uart_transmitter#51| ((state |uart_transmitter_s|)) (_ BitVec 1) (ite (|uart_transmitter#40| state) (ite (|uart_transmitter#50| state) #b1 #b0) (|uart_transmitter#49| state))) ; $procmux$128_Y
(define-fun |uart_transmitter#52| ((state |uart_transmitter_s|)) (_ BitVec 1) (ite (|uart_transmitter#44| state) (|uart_transmitter#51| state) (|uart_transmitter#48| state))) ; $0$formal$./uart_transmitter.v:112$14_CHECK[0:0]$48
; yosys-smt2-anyseq uart_transmitter#53 1 $auto$setundef.cc:501:execute$265
(declare-fun |uart_transmitter#53| (|uart_transmitter_s|) (_ BitVec 1)) ; $auto$rtlil.cc:2807:Anyseq$266
; yosys-smt2-anyseq uart_transmitter#54 1 $auto$setundef.cc:501:execute$263
(declare-fun |uart_transmitter#54| (|uart_transmitter_s|) (_ BitVec 1)) ; $auto$rtlil.cc:2807:Anyseq$264
(define-fun |uart_transmitter#55| ((state |uart_transmitter_s|)) (_ BitVec 1) (ite (|uart_transmitter#40| state) (|uart_transmitter#54| state) (|uart_transmitter#14| state))) ; $procmux$138_Y
(define-fun |uart_transmitter#56| ((state |uart_transmitter_s|)) (_ BitVec 1) (ite (|uart_transmitter#44| state) (|uart_transmitter#55| state) (|uart_transmitter#53| state))) ; $0$formal$./uart_transmitter.v:116$15_CHECK[0:0]$50
(define-fun |uart_transmitter#57| ((state |uart_transmitter_s|)) (_ BitVec 1) (ite (|uart_transmitter#40| state) #b0 #b1)) ; $procmux$133_Y
(define-fun |uart_transmitter#58| ((state |uart_transmitter_s|)) (_ BitVec 1) (ite (|uart_transmitter#44| state) (|uart_transmitter#57| state) #b0)) ; $0$formal$./uart_transmitter.v:116$15_EN[0:0]$51
; yosys-smt2-anyseq uart_transmitter#59 1 $auto$setundef.cc:501:execute$269
(declare-fun |uart_transmitter#59| (|uart_transmitter_s|) (_ BitVec 1)) ; $auto$rtlil.cc:2807:Anyseq$270
; yosys-smt2-anyseq uart_transmitter#60 1 $auto$setundef.cc:501:execute$267
(declare-fun |uart_transmitter#60| (|uart_transmitter_s|) (_ BitVec 1)) ; $auto$rtlil.cc:2807:Anyseq$268
(define-fun |uart_transmitter#61| ((state |uart_transmitter_s|)) Bool (not (or  (= ((_ extract 0 0) (|uart_transmitter#15| state)) #b1) false))) ; $logic_not$./uart_transmitter.v:120$72_Y
(define-fun |uart_transmitter#62| ((state |uart_transmitter_s|)) Bool (= (|uart_transmitter#22| state) #b01)) ; $eq$./uart_transmitter.v:119$71_Y
(define-fun |uart_transmitter#63| ((state |uart_transmitter_s|)) (_ BitVec 1) (ite (|uart_transmitter#62| state) (ite (|uart_transmitter#61| state) #b1 #b0) (|uart_transmitter#60| state))) ; $procmux$146_Y
(define-fun |uart_transmitter#64| ((state |uart_transmitter_s|)) (_ BitVec 1) (ite (|uart_transmitter#44| state) (|uart_transmitter#63| state) (|uart_transmitter#59| state))) ; $0$formal$./uart_transmitter.v:119$16_CHECK[0:0]$52
(define-fun |uart_transmitter#65| ((state |uart_transmitter_s|)) (_ BitVec 1) (ite (|uart_transmitter#62| state) #b1 #b0)) ; $procmux$142_Y
(define-fun |uart_transmitter#66| ((state |uart_transmitter_s|)) (_ BitVec 1) (ite (|uart_transmitter#44| state) (|uart_transmitter#65| state) #b0)) ; $0$formal$./uart_transmitter.v:119$16_EN[0:0]$53
; yosys-smt2-anyseq uart_transmitter#67 1 $auto$setundef.cc:501:execute$273
(declare-fun |uart_transmitter#67| (|uart_transmitter_s|) (_ BitVec 1)) ; $auto$rtlil.cc:2807:Anyseq$274
; yosys-smt2-anyseq uart_transmitter#68 1 $auto$setundef.cc:501:execute$271
(declare-fun |uart_transmitter#68| (|uart_transmitter_s|) (_ BitVec 1)) ; $auto$rtlil.cc:2807:Anyseq$272
(define-fun |uart_transmitter#69| ((state |uart_transmitter_s|)) Bool (distinct (|uart_transmitter#20| state) (|uart_transmitter#2| state))) ; $ne$./uart_transmitter.v:123$74_Y
(define-fun |uart_transmitter#70| ((state |uart_transmitter_s|)) Bool (= (|uart_transmitter#22| state) #b10)) ; $eq$./uart_transmitter.v:121$73_Y
(define-fun |uart_transmitter#71| ((state |uart_transmitter_s|)) (_ BitVec 1) (ite (|uart_transmitter#70| state) (ite (|uart_transmitter#69| state) #b1 #b0) (|uart_transmitter#68| state))) ; $procmux$154_Y
(define-fun |uart_transmitter#72| ((state |uart_transmitter_s|)) (_ BitVec 1) (ite (|uart_transmitter#44| state) (|uart_transmitter#71| state) (|uart_transmitter#67| state))) ; $0$formal$./uart_transmitter.v:122$17_CHECK[0:0]$54
(define-fun |uart_transmitter#73| ((state |uart_transmitter_s|)) (_ BitVec 1) (ite (|uart_transmitter#70| state) #b1 #b0)) ; $procmux$150_Y
(define-fun |uart_transmitter#74| ((state |uart_transmitter_s|)) (_ BitVec 1) (ite (|uart_transmitter#44| state) (|uart_transmitter#73| state) #b0)) ; $0$formal$./uart_transmitter.v:122$17_EN[0:0]$55
; yosys-smt2-anyseq uart_transmitter#75 1 $auto$setundef.cc:501:execute$277
(declare-fun |uart_transmitter#75| (|uart_transmitter_s|) (_ BitVec 1)) ; $auto$rtlil.cc:2807:Anyseq$278
; yosys-smt2-anyseq uart_transmitter#76 1 $auto$setundef.cc:501:execute$275
(declare-fun |uart_transmitter#76| (|uart_transmitter_s|) (_ BitVec 1)) ; $auto$rtlil.cc:2807:Anyseq$276
(define-fun |uart_transmitter#77| ((state |uart_transmitter_s|)) Bool (= (|uart_transmitter#15| state) (|uart_transmitter#19| state))) ; $eq$./uart_transmitter.v:124$75_Y
(define-fun |uart_transmitter#78| ((state |uart_transmitter_s|)) (_ BitVec 1) (ite (|uart_transmitter#70| state) (ite (|uart_transmitter#77| state) #b1 #b0) (|uart_transmitter#76| state))) ; $procmux$162_Y
(define-fun |uart_transmitter#79| ((state |uart_transmitter_s|)) (_ BitVec 1) (ite (|uart_transmitter#44| state) (|uart_transmitter#78| state) (|uart_transmitter#75| state))) ; $0$formal$./uart_transmitter.v:123$18_CHECK[0:0]$56
(define-fun |uart_transmitter#80| ((state |uart_transmitter_s|)) (_ BitVec 1) ((_ extract 0 0) (bvlshr (|uart_transmitter#13| state) (concat #b00000 (|uart_transmitter#2| state))))) ; $0$past$./uart_transmitter.v:124$8$0[0:0]$38
; yosys-smt2-anyseq uart_transmitter#81 1 $auto$setundef.cc:501:execute$281
(declare-fun |uart_transmitter#81| (|uart_transmitter_s|) (_ BitVec 1)) ; $auto$rtlil.cc:2807:Anyseq$282
(define-fun |uart_transmitter#82| ((state |uart_transmitter_s|)) Bool (or  (|uart_transmitter#11| state) (|uart_transmitter#8| state))) ; $auto$opt_reduce.cc:134:opt_mux$248
(define-fun |uart_transmitter#83| ((state |uart_transmitter_s|)) (_ BitVec 1) (ite (|uart_transmitter#10| state) #b0 (ite (|uart_transmitter#9| state) (|uart_transmitter#80| state) (ite (|uart_transmitter#82| state) #b1 (|uart_transmitter#81| state))))) ; $0\o_TX[0:0]
; yosys-smt2-anyseq uart_transmitter#84 1 $auto$setundef.cc:501:execute$279
(declare-fun |uart_transmitter#84| (|uart_transmitter_s|) (_ BitVec 1)) ; $auto$rtlil.cc:2807:Anyseq$280
(define-fun |uart_transmitter#85| ((state |uart_transmitter_s|)) Bool (or  (|uart_transmitter#9| state) (|uart_transmitter#8| state) (|uart_transmitter#10| state))) ; $auto$opt_reduce.cc:134:opt_mux$246
(define-fun |uart_transmitter#86| ((state |uart_transmitter_s|)) (_ BitVec 1) (ite (|uart_transmitter#11| state) #b0 (ite (|uart_transmitter#85| state) #b1 (|uart_transmitter#84| state)))) ; $0\o_TX_BUSY[0:0]
; yosys-smt2-anyseq uart_transmitter#87 8 $auto$setundef.cc:501:execute$283
(declare-fun |uart_transmitter#87| (|uart_transmitter_s|) (_ BitVec 8)) ; $auto$rtlil.cc:2807:Anyseq$284
(define-fun |uart_transmitter#88| ((state |uart_transmitter_s|)) (_ BitVec 8) (ite (|uart_transmitter#11| state) (|uart_transmitter#17| state) (ite (|uart_transmitter#85| state) (|uart_transmitter#13| state) (|uart_transmitter#87| state)))) ; $0\r_DATA_REG[7:0]
(define-fun |uart_transmitter#89| ((state |uart_transmitter_s|)) (_ BitVec 2) (ite (|uart_transmitter#16| state) #b00 (|uart_transmitter#12| state))) ; $0\r_CURRENT_STATE[1:0]
(define-fun |uart_transmitter#90| ((state |uart_transmitter_s|)) (_ BitVec 3) (bvadd (|uart_transmitter#2| state) #b001)) ; $add$./uart_transmitter.v:65$27_Y
(define-fun |uart_transmitter#91| ((state |uart_transmitter_s|)) (_ BitVec 3) (ite (|uart_transmitter#9| state) (|uart_transmitter#90| state) #b000)) ; $0\r_BIT_COUNT[2:0]
(define-fun |uart_transmitter_a| ((state |uart_transmitter_s|)) Bool (and
  (|uart_transmitter_a 0| state)
  (|uart_transmitter_a 1| state)
  (|uart_transmitter_a 2| state)
  (|uart_transmitter_a 3| state)
  (|uart_transmitter_a 4| state)
  (|uart_transmitter_a 5| state)
))
(define-fun |uart_transmitter_u| ((state |uart_transmitter_s|)) Bool (and
  (|uart_transmitter_u 0| state)
  (|uart_transmitter_u 1| state)
  (|uart_transmitter_u 2| state)
))
(define-fun |uart_transmitter_i| ((state |uart_transmitter_s|)) Bool (and
  (= (= ((_ extract 0 0) (|uart_transmitter#0| state)) #b1) false) ; r_PAST_VALID
  (= (|uart_transmitter#12| state) #b00) ; r_NEXT_STATE
  (= (|uart_transmitter#13| state) #b00000000) ; r_DATA_REG
  (= (|uart_transmitter#7| state) #b00) ; r_CURRENT_STATE
  (= (|uart_transmitter#2| state) #b000) ; r_BIT_COUNT
  (= (= ((_ extract 0 0) (|uart_transmitter#24| state)) #b1) false) ; $formal$./uart_transmitter.v:122$17_EN
  (= (= ((_ extract 0 0) (|uart_transmitter#26| state)) #b1) false) ; $formal$./uart_transmitter.v:119$16_EN
  (= (= ((_ extract 0 0) (|uart_transmitter#28| state)) #b1) false) ; $formal$./uart_transmitter.v:116$15_EN
  (= (= ((_ extract 0 0) (|uart_transmitter#31| state)) #b1) false) ; $formal$./uart_transmitter.v:111$13_EN
))
(define-fun |uart_transmitter_h| ((state |uart_transmitter_s|)) Bool true)
(define-fun |uart_transmitter_t| ((state |uart_transmitter_s|) (next_state |uart_transmitter_s|)) Bool (and
  (= (ite (|uart_transmitter#18| state) #b1 #b0) (|uart_transmitter#33| next_state)) ; $procdff$211 $and$./uart_transmitter.v:0$63_Y
  (= (|uart_transmitter#45| state) (|uart_transmitter#32| next_state)) ; $procdff$226 $formal$./uart_transmitter.v:111$13_CHECK
  (= (|uart_transmitter#47| state) (|uart_transmitter#31| next_state)) ; $procdff$227 $formal$./uart_transmitter.v:111$13_EN
  (= (|uart_transmitter#52| state) (|uart_transmitter#30| next_state)) ; $procdff$228 $formal$./uart_transmitter.v:112$14_CHECK
  (= (|uart_transmitter#56| state) (|uart_transmitter#29| next_state)) ; $procdff$230 $formal$./uart_transmitter.v:116$15_CHECK
  (= (|uart_transmitter#58| state) (|uart_transmitter#28| next_state)) ; $procdff$231 $formal$./uart_transmitter.v:116$15_EN
  (= (|uart_transmitter#64| state) (|uart_transmitter#27| next_state)) ; $procdff$232 $formal$./uart_transmitter.v:119$16_CHECK
  (= (|uart_transmitter#66| state) (|uart_transmitter#26| next_state)) ; $procdff$233 $formal$./uart_transmitter.v:119$16_EN
  (= (|uart_transmitter#72| state) (|uart_transmitter#25| next_state)) ; $procdff$234 $formal$./uart_transmitter.v:122$17_CHECK
  (= (|uart_transmitter#74| state) (|uart_transmitter#24| next_state)) ; $procdff$235 $formal$./uart_transmitter.v:122$17_EN
  (= (|uart_transmitter#79| state) (|uart_transmitter#23| next_state)) ; $procdff$236 $formal$./uart_transmitter.v:123$18_CHECK
  (= (|uart_transmitter#7| state) (|uart_transmitter#22| next_state)) ; $procdff$213 $past$./uart_transmitter.v:110$3$0
  (= (|uart_transmitter#17| state) (|uart_transmitter#21| next_state)) ; $procdff$214 $past$./uart_transmitter.v:113$4$0
  (= (|uart_transmitter#2| state) (|uart_transmitter#20| next_state)) ; $procdff$217 $past$./uart_transmitter.v:123$7$0
  (= (|uart_transmitter#80| state) (|uart_transmitter#19| next_state)) ; $procdff$218 $past$./uart_transmitter.v:124$8$0
  (= (|uart_transmitter#83| state) (|uart_transmitter#15| next_state)) ; $procdff$241 \o_TX
  (= (|uart_transmitter#86| state) (|uart_transmitter#14| next_state)) ; $procdff$240 \o_TX_BUSY
  (= (|uart_transmitter#88| state) (|uart_transmitter#13| next_state)) ; $procdff$242 \r_DATA_REG
  (= (|uart_transmitter#89| state) (|uart_transmitter#7| next_state)) ; $procdff$244 \r_CURRENT_STATE
  (= (|uart_transmitter#91| state) (|uart_transmitter#2| next_state)) ; $procdff$243 \r_BIT_COUNT
  (= #b1 (|uart_transmitter#0| next_state)) ; $procdff$210 \r_PAST_VALID
)) ; end of module uart_transmitter
; yosys-smt2-topmod uart_transmitter
; end of yosys output
